%
% This is a variant of the hard problem scheduling_with_assignments8.dzn
% with precedences. This is much faster.
%
num_jobs = 20;
num_workers = 6;
% jobs       1  2  3  4  5  6  7  8  9 10 11 12 13 14 15 16 17 18 19 20
duration = [30,10,15,15,20,10,10,45,20,10,10,20,30,40,50,30,20,10,15,25];
resource = [ 3, 1, 3, 2, 4, 2, 2, 4, 3, 2, 2, 2, 3, 3, 4, 1, 1, 2, 2, 2];
max_time = 400; % optimal: 270
allow_idle = true;
collect_workers = false;
do_precendences = true;
num_precedences = 22;
precedences = array2d(1..num_precedences, 1..2, 
[ 
  1,2,
  1,3,
  1,4,
  2,3,
  2,4,
  3,4,
  4,5,
  5,6,
  5,7,
  5,8,
  5,10,
  6,10,
  6,11,
  11,12,
  12,13,
  12,14,
  14,15,
  15,16,
  15,17,
  15,18,
  16,19,
  17,20
]);
